results_rootrelaxation/bin018_060_027.srr.sol
solution status: optimal solution found
objective value:                                    1
_var2078_                          0.0251597286265238 	(obj:0)
_var2808_                           0.596821194743582 	(obj:0)
_var2815_                           0.131060724081631 	(obj:0)
_var2862_                            0.42613511196474 	(obj:0)
_var2869_                           0.203931479823946 	(obj:0)
_var2874_                          0.0058639578315632 	(obj:0)
_var2888_                           0.149908756274407 	(obj:0)
_var2892_                          0.0136743226255644 	(obj:0)
_var2894_                           0.321477422735725 	(obj:0)
_var2900_                           0.387776392142078 	(obj:0)
_var2901_                           0.184055972957719 	(obj:0)
_var2904_                          0.0401829527841625 	(obj:0)
_var2905_                           0.101783013792626 	(obj:0)
_var2906_                           0.164101789751595 	(obj:0)
_var2908_                          0.0180011194526647 	(obj:0)
_var2918_                           0.250527449329998 	(obj:0)
_var2922_                          0.0547342329343202 	(obj:0)
_var2924_                           0.032356212870493 	(obj:0)
_var2929_                           0.238174016749079 	(obj:0)
_var2933_                           0.126811327906993 	(obj:0)
_var2937_                          0.0536385913796197 	(obj:0)
_var2942_                           0.322502948099191 	(obj:0)
_var2952_                         0.00314990783839827 	(obj:1)
_var2956_                         0.00910612838790492 	(obj:0)
_var2964_                          0.0114634542495562 	(obj:0)
_var2975_                            0.17845896661885 	(obj:0)
_var2976_                          0.0566696414211184 	(obj:0)
_var2979_                           0.101834839018764 	(obj:0)
_var2981_                           0.130210645492734 	(obj:0)
_var2983_                          0.0596947881004191 	(obj:0)
_var2987_                           0.102683605614647 	(obj:0)
_var2988_                           0.287881240072774 	(obj:0)
_var2989_                           0.256650175631525 	(obj:0)
_var2990_                         0.00596362630593501 	(obj:0)
_var2992_                           0.132418720784497 	(obj:0)
_var2998_                          0.0216349310386408 	(obj:0)
_var3009_                          0.0494879443220189 	(obj:0)
_var3012_                           0.186555491862919 	(obj:0)
_var3016_                           0.383241038338655 	(obj:0)
_var3018_                         0.000274246897180835 	(obj:0)
_var3024_                           0.289136350949244 	(obj:0)
_var3034_                           0.507140959562354 	(obj:0)
_var3035_                            0.16192948059563 	(obj:0)
_var3044_                          0.0464122812659306 	(obj:0)
_var3045_                          0.0878150624320091 	(obj:0)
_var3047_                          0.0455897613615017 	(obj:0)
_var3052_                            0.22190909897131 	(obj:0)
_var3055_                           0.134990621844775 	(obj:0)
_var3056_                          0.0680283818604411 	(obj:0)
_var3057_                         0.00263939480270955 	(obj:0)
_var3058_                          0.0591583892501156 	(obj:0)
_var3059_                            0.25948106507241 	(obj:0)
_var3066_                          0.0638821093707687 	(obj:0)
_var3067_                           0.156613248127755 	(obj:0)
_var3069_                           0.205795286934058 	(obj:0)
_var3072_                           0.211198926780003 	(obj:0)
_var3076_                           0.188887790915551 	(obj:0)
_var3081_                           0.303725195862578 	(obj:0)
_var3084_                          0.0998120769899761 	(obj:0)
_var3091_                          0.0304145231407985 	(obj:0)
_var3095_                           0.164504873842833 	(obj:0)
_var3096_                           0.112039463336867 	(obj:0)
_var3097_                          0.0635628842766496 	(obj:0)
_var3100_                           0.152087354857251 	(obj:0)
_var3102_                         0.00512568038105171 	(obj:0)
_var3104_                          0.0347334900976687 	(obj:0)
_var3105_                           0.108638590702721 	(obj:0)
_var3106_                          0.0604470879376799 	(obj:0)
_var3107_                         0.00670332755532926 	(obj:0)
_var3108_                           0.229312407242855 	(obj:0)
_var3111_                          0.0957435791689142 	(obj:0)
_var3112_                          0.0702838629502698 	(obj:0)
_var3116_                          0.0413424994554975 	(obj:0)
_var3118_                          0.0710218832394626 	(obj:0)
_var3119_                          0.0505427883510094 	(obj:0)
_var3120_                            0.17899540244629 	(obj:0)
_var3121_                          0.0908113247865495 	(obj:0)
_var3122_                          0.0240693829956126 	(obj:0)
_var3123_                          0.0145396606527609 	(obj:0)
_var3124_                          0.0513116003207544 	(obj:0)
_var3125_                           0.186843694574117 	(obj:0)
_var3127_                          0.0182876829829257 	(obj:0)
_var3128_                          0.0507833451758082 	(obj:0)
_var3129_                           0.060118515887026 	(obj:0)
_var3132_                          0.0950352458414579 	(obj:0)
_var3133_                           0.175517577700243 	(obj:0)
_var3139_                           0.243664356451581 	(obj:1)
_var3141_                          0.0560894386535893 	(obj:0)
_var3143_                           0.156946983465282 	(obj:0)
_var3147_                            0.45329697294593 	(obj:1)
_var3151_                           0.127221286847665 	(obj:0)
_var3155_                           0.207518575924291 	(obj:0)
_var3156_                         0.00357061896218108 	(obj:0)
_var3157_                           0.260232715173347 	(obj:0)
_var3159_                          0.0236998889899158 	(obj:0)
_var3160_                           0.123112359454819 	(obj:0)
_var3162_                           0.145676253797978 	(obj:0)
_var3163_                          0.0261682337950296 	(obj:0)
_var3164_                          0.0100255663643515 	(obj:0)
_var3167_                          0.0997488729261272 	(obj:0)
_var3169_                           0.056957907760263 	(obj:0)
_var3170_                           0.151271938951411 	(obj:0)
_var3173_                          0.0588392578268057 	(obj:0)
_var3174_                          0.0258724057353689 	(obj:0)
_var3175_                          0.0956086906537357 	(obj:0)
_var3176_                           0.109307233313257 	(obj:0)
_var3178_                          0.0301167494621156 	(obj:0)
_var3179_                          0.0463771387292583 	(obj:1)
_var3182_                          0.0774830036942396 	(obj:0)
_var3183_                           0.013835497743559 	(obj:0)
_var3184_                            0.12305576927128 	(obj:0)
_var3185_                          0.0673651061786442 	(obj:1)
_var3186_                           0.110847610097587 	(obj:0)
_var3187_                          0.0382237737472175 	(obj:0)
_var3188_                          0.0457685366977702 	(obj:0)
_var3191_                          0.0866308944511402 	(obj:0)
_var3195_                           0.127641361686048 	(obj:0)
_var3196_                          0.0793973764753612 	(obj:0)
_var3199_                          0.0755774254226093 	(obj:0)
_var3200_                          0.0523454303242026 	(obj:0)
_var3201_                           0.218334918346679 	(obj:0)
_var3203_                          0.0440969981064569 	(obj:0)
_var3204_                          0.0622082145661136 	(obj:0)
_var3205_                          0.0581520333276894 	(obj:0)
_var3206_                          0.0410256999264896 	(obj:0)
_var3207_                           0.123484462934982 	(obj:0)
_var3209_                         0.00792986783127111 	(obj:0)
_var3210_                          0.0747198905457941 	(obj:0)
_var3211_                          0.0501501591853467 	(obj:0)
_var3212_                          0.0210821273466901 	(obj:0)
_var3213_                          0.0953348882434126 	(obj:0)
_var3215_                           0.186146517856188 	(obj:1)
_var3222_                         0.000364586223077473 	(obj:0)
_var3225_                          0.0392607213873808 	(obj:0)
_var3226_                           0.110727888006328 	(obj:0)
_var3227_                           0.046229838974865 	(obj:0)
_var3229_                           0.147080459065978 	(obj:0)
_var3230_                          0.0939655738134093 	(obj:0)
_var3231_                           0.200388123757284 	(obj:0)
_var3237_                          0.0774092373398439 	(obj:0)
_var3238_                           0.064123106611183 	(obj:0)
_var3240_                          0.0823965366964106 	(obj:0)
_var3242_                           0.059599177618334 	(obj:0)
_var3243_                          0.0581494938422125 	(obj:0)
_var3249_                            0.13700209443909 	(obj:0)
_var3251_                          0.0409968784856867 	(obj:0)
_var3252_                           0.103826345551094 	(obj:0)
_var3255_                          0.0616687497292403 	(obj:0)
_var3257_                          0.0246772563448819 	(obj:0)
_var3259_                         0.00454418280456368 	(obj:0)
_var3263_                          0.0433209737166854 	(obj:0)
_var3265_                          0.0290864416970884 	(obj:0)
